[ma. 03. april 14:16:39 +0200 2023]  ./input/alternate_g_np/50-1-4.gcc
Set parameter Username
Academic license - for non-commercial use only - expires 2024-03-28
Set parameter TimeLimit to value 1800
Set parameter PreCrush to value 1
Set parameter LazyConstraints to value 1
Gurobi Optimizer version 10.0.1 build v10.0.1rc0 (linux64)

CPU model: AMD Ryzen 9 5950X 16-Core Processor, instruction set [SSE2|AVX|AVX2]
Thread count: 16 physical cores, 32 logical processors, using up to 32 threads

Optimize a model with 52 rows, 150 columns and 350 nonzeros
Model fingerprint: 0x7360603f
Variable types: 0 continuous, 150 integer (150 binary)
Coefficient statistics:
  Matrix range     [1e+00, 1e+00]
  Objective range  [7e+00, 1e+02]
  Bounds range     [1e+00, 1e+00]
  RHS range        [1e+00, 1e+00]
Presolve time: 0.00s
Presolved: 52 rows, 150 columns, 350 nonzeros
Variable types: 0 continuous, 150 integer (150 binary)

Root relaxation: objective 2.729000e+03, 2 iterations, 0.00 seconds (0.00 work units)

    Nodes    |    Current Node    |     Objective Bounds      |     Work
 Expl Unexpl |  Obj  Depth IntInf | Incumbent    BestBd   Gap | It/Node Time

     0     0 2729.00000    0    2          - 2729.00000      -     -    0s
     0     0 2388.00000    0    -          - 2388.00000      -     -    0s
     0     0 2322.00000    0    9          - 2322.00000      -     -    0s
     0     0  818.00000    0    -          -  818.00000      -     -    0s
     0     0  818.00000    0    -          -  818.00000      -     -    0s
     0     0  818.00000    0    -          -  818.00000      -     -    0s
     0     0  818.00000    0   14          -  818.00000      -     -    0s
     0     0  818.00000    0    -          -  818.00000      -     -    0s
     0     0  788.00000    0    -          -  788.00000      -     -    0s
     0     0  785.00000    0    -          -  785.00000      -     -    0s
     0     0  772.75000    0   16          -  772.75000      -     -    0s
     0     0  644.06667    0   21          -  644.06667      -     -    0s
     0     0  616.00000    0   13          -  616.00000      -     -    0s
     0     0  553.16216    0   22          -  553.16216      -     -    0s
     0     0  528.00000    0   25          -  528.00000      -     -    0s
     0     0  524.00000    0   12          -  524.00000      -     -    0s
H    0     0                     524.0000000  524.00000  0.00%     -    0s

Cutting planes:
  User: 24
  Clique: 2
  MIR: 4
  Lazy constraints: 57

Explored 1 nodes (294 simplex iterations) in 0.01 seconds (0.01 work units)
Thread count was 32 (of 32 available processors)

Solution count 1: 524 

Optimal solution found (tolerance 1.00e-04)
Best objective 5.240000000000e+02, best bound 5.240000000000e+02, gap 0.0000%

User-callback calls 176, time in user-callback 0.00 sec
Minimal separator inequalities added: 85
Indegree inequalities added: 22
Passed solution check
[ma. 03. april 14:16:39 +0200 2023]  done

